c Reading file examples/loan_acquisition/mmc_encoding/encoding.dimacs
c Building 1-fold quantitative self-composition...
c ind 144  145  150  151  152  153  154  155  184  185  186  195  196  197  198  199  200  201  202  203  207  208  212  213 0
c previous ind: 560  561  564  567  568  571  572  575  576  579  582  583  586  587  590  591  594  595  596  599  600  603  604  607  608  611  612  615  616  619  620  623  624  627  628  631  632  634  635  636 0
c This is a CNF SAT formula in the DIMACS CNF format,
c produced with the bc2cnf translator by Tommi Junttila;
c see http://users.ics.aalto.fi/tjunttil/circuits/index.html
c phi_Gamma_det <-> 1
c phi_Gamma <-> 1
c phi_T_feature_det <-> 1
c phi_T_transitions <-> 1
c phi_T_transitions_consistency <-> 1
c phi_T <-> 1
c phi_sim_leaves <-> 1
c phi_sim_transition <-> 1
c phi_sim <-> 1
c FORMULA <-> 1
c pi_1 <-> 2
c pi_0 <-> 84
c tau_1_3_approved_1 <-> 144
c tau_1_3_approved_0 <-> 145
c tau_1_2_approved_1 <-> 150
c tau_1_2_approved_0 <-> 151
c tau_1_1_approved_1 <-> 152
c tau_1_1_approved_0 <-> 153
c tau_1_0_approved_1 <-> 154
c tau_1_0_approved_0 <-> 155
c tau_0_3_approved_1 <-> 184
c tau_0_3_approved_0 <-> 185
c tau_0_3_1 <-> 186
c tau_0_2_approved_1 <-> 195
c tau_0_2_approved_0 <-> 196
c tau_0_2_1 <-> 197
c tau_0_1_approved_1 <-> 198
c tau_0_1_approved_0 <-> 199
c tau_0_1_1 <-> 200
c tau_0_0_approved_1 <-> 201
c tau_0_0_approved_0 <-> 202
c tau_0_0_1 <-> 203
c lam_1_monthly_income <-> 207
c lam_1_age <-> 208
c lam_0_monthly_income <-> 212
c lam_0_age <-> 213
c phi_Gamma_val <-> 558
c monthly_income_P858700 <-> 560
c age_P5200 <-> 561
c monthly_income_P215700 <-> 564
c monthly_income_P144000 <-> 567
c age_P7500 <-> 568
c monthly_income_P771000 <-> 571
c age_P5700 <-> 572
c monthly_income_P414400 <-> 575
c age_P6300 <-> 576
c monthly_income_P640300 <-> 579
c monthly_income_P694600 <-> 582
c age_P3700 <-> 583
c monthly_income_P821100 <-> 586
c age_P6200 <-> 587
c monthly_income_P978400 <-> 590
c age_P3300 <-> 591
c pi_approved_0 <-> 594
c approved_P0 <-> 594
c monthly_income_P641300 <-> 595
c age_P2800 <-> 596
c monthly_income_P528300 <-> 599
c age_P6000 <-> 600
c monthly_income_P178700 <-> 603
c age_P2500 <-> 604
c monthly_income_P388700 <-> 607
c age_P5900 <-> 608
c monthly_income_P423000 <-> 611
c age_P4600 <-> 612
c monthly_income_P481500 <-> 615
c age_P4300 <-> 616
c monthly_income_P137300 <-> 619
c age_P4000 <-> 620
c monthly_income_P827500 <-> 623
c age_P4200 <-> 624
c monthly_income_P788300 <-> 627
c age_P6900 <-> 628
c monthly_income_P546200 <-> 631
c age_P7300 <-> 632
c pi_approved_1 <-> 634
c approved_P100 <-> 634
c monthly_income_P571300 <-> 635
c age_P7700 <-> 636
c ind 560 561 564 567 568 571 572 575 576 579 582 583 586 587 590 591 594 595 596 599 600 603 604 607 608 611 612 615 616 619 620 623 624 627 628 631 632 634 635 636 0
p cnf 638 1761
1 0
2 -3 0
2 -13 0
-2 13 3 0
-3 4 0
-3 59 0
3 -59 -4 0
-4 5 0
-4 207 0
4 -207 -5 0
5 -6 0
5 -53 0
-5 53 6 0
6 -7 0
6 -55 0
-6 55 7 0
7 -8 0
7 -80 0
-7 80 8 0
8 -9 0
8 -64 0
-8 64 9 0
9 -10 0
9 -38 0
-9 38 10 0
10 -11 0
10 -66 0
-10 66 11 0
11 -12 0
11 -82 0
-11 82 12 0
12 -42 0
12 -73 0
-12 73 42 0
13 -14 0
13 -25 0
-13 25 14 0
-14 15 0
-14 75 0
14 -75 -15 0
-15 16 0
-15 207 0
15 -207 -16 0
16 -17 0
16 -32 0
-16 32 17 0
17 -18 0
17 -34 0
-17 34 18 0
18 -19 0
18 -36 0
-18 36 19 0
19 -20 0
19 -40 0
-19 40 20 0
20 -21 0
20 -83 0
-20 83 21 0
21 -22 0
21 -56 0
-21 56 22 0
22 -23 0
22 -68 0
-22 68 23 0
23 -24 0
23 -70 0
-23 70 24 0
24 -43 0
24 -72 0
-24 72 43 0
25 -26 0
25 -46 0
-25 46 26 0
-26 27 0
-26 30 0
26 -30 -27 0
-27 28 0
-27 29 0
27 -29 -28 0
28 144 0
28 -634 0
-28 634 -144 0
29 145 0
29 -594 0
-29 594 -145 0
-30 31 0
-30 208 0
30 -208 -31 0
31 -32 0
31 -33 0
-31 33 32 0
-32 564 0
-32 628 0
32 -628 -564 0
33 -34 0
33 -35 0
-33 35 34 0
-34 567 0
-34 568 0
34 -568 -567 0
35 -36 0
35 -37 0
-35 37 36 0
-36 575 0
-36 576 0
36 -576 -575 0
37 -38 0
37 -39 0
-37 39 38 0
-38 586 0
-38 587 0
38 -587 -586 0
39 -40 0
39 -41 0
-39 41 40 0
-40 599 0
-40 600 0
40 -600 -599 0
41 -42 0
41 -43 0
-41 43 42 0
-42 627 0
-42 628 0
42 -628 -627 0
43 -44 0
43 -45 0
-43 45 44 0
-44 631 0
-44 632 0
44 -632 -631 0
-45 635 0
-45 636 0
45 -636 -635 0
46 -47 0
46 -57 0
-46 57 47 0
-47 48 0
-47 51 0
47 -51 -48 0
-48 49 0
-48 50 0
48 -50 -49 0
49 150 0
49 -634 0
-49 634 -150 0
50 151 0
50 -594 0
-50 594 -151 0
-51 52 0
-51 208 0
51 -208 -52 0
52 -53 0
52 -54 0
-52 54 53 0
-53 560 0
-53 561 0
53 -561 -560 0
54 -55 0
54 -56 0
-54 56 55 0
-55 571 0
-55 572 0
55 -572 -571 0
-56 607 0
-56 608 0
56 -608 -607 0
57 -58 0
57 -74 0
-57 74 58 0
-58 59 0
-58 62 0
58 -62 -59 0
-59 60 0
-59 61 0
59 -61 -60 0
60 152 0
60 -634 0
-60 634 -152 0
61 153 0
61 -594 0
-61 594 -153 0
-62 63 0
-62 208 0
62 -208 -63 0
63 -64 0
63 -65 0
-63 65 64 0
-64 582 0
-64 583 0
64 -583 -582 0
65 -66 0
65 -67 0
-65 67 66 0
-66 590 0
-66 591 0
66 -591 -590 0
67 -68 0
67 -69 0
-67 69 68 0
-68 611 0
-68 612 0
68 -612 -611 0
69 -70 0
69 -71 0
-69 71 70 0
-70 615 0
-70 616 0
70 -616 -615 0
71 -72 0
71 -73 0
-71 73 72 0
-72 619 0
-72 620 0
72 -620 -619 0
-73 623 0
-73 624 0
73 -624 -623 0
-74 75 0
-74 78 0
74 -78 -75 0
-75 76 0
-75 77 0
75 -77 -76 0
76 154 0
76 -634 0
-76 634 -154 0
77 155 0
77 -594 0
-77 594 -155 0
-78 79 0
-78 208 0
78 -208 -79 0
79 -80 0
79 -81 0
-79 81 80 0
-80 579 0
-80 604 0
80 -604 -579 0
81 -82 0
81 -83 0
-81 83 82 0
-82 595 0
-82 596 0
82 -596 -595 0
-83 603 0
-83 604 0
83 -604 -603 0
84 -85 0
84 -87 0
-84 87 85 0
84 0
-85 86 0
-85 108 0
85 -108 -86 0
-86 5 0
-86 212 0
86 -212 -5 0
87 -88 0
87 -90 0
-87 90 88 0
-88 89 0
-88 115 0
88 -115 -89 0
-89 16 0
-89 212 0
89 -212 -16 0
90 -91 0
90 -98 0
-90 98 91 0
-91 92 0
-91 97 0
91 -97 -92 0
-92 93 0
-92 94 0
92 -94 -93 0
93 184 0
93 -634 0
-93 634 -184 0
-94 95 0
-94 96 0
94 -96 -95 0
95 185 0
95 -594 0
-95 594 -185 0
96 -2 0
96 186 0
-96 -186 2 0
-97 31 0
-97 213 0
97 -213 -31 0
98 -99 0
98 -106 0
-98 106 99 0
-99 100 0
-99 105 0
99 -105 -100 0
-100 101 0
-100 102 0
100 -102 -101 0
101 195 0
101 -634 0
-101 634 -195 0
-102 103 0
-102 104 0
102 -104 -103 0
103 196 0
103 -594 0
-103 594 -196 0
104 -2 0
104 197 0
-104 -197 2 0
-105 52 0
-105 213 0
105 -213 -52 0
106 -107 0
106 -114 0
-106 114 107 0
-107 108 0
-107 113 0
107 -113 -108 0
-108 109 0
-108 110 0
108 -110 -109 0
109 198 0
109 -634 0
-109 634 -198 0
-110 111 0
-110 112 0
110 -112 -111 0
111 199 0
111 -594 0
-111 594 -199 0
112 -2 0
112 200 0
-112 -200 2 0
-113 63 0
-113 213 0
113 -213 -63 0
-114 115 0
-114 120 0
114 -120 -115 0
-115 116 0
-115 117 0
115 -117 -116 0
116 201 0
116 -634 0
-116 634 -201 0
-117 118 0
-117 119 0
117 -119 -118 0
118 202 0
118 -594 0
-118 594 -202 0
119 -2 0
119 203 0
-119 -203 2 0
-120 79 0
-120 213 0
120 -213 -79 0
121 207 0
121 -122 0
-121 122 -207 0
121 0
-122 -144 0
-122 123 0
122 -123 144 0
-123 -145 0
-123 124 0
123 -124 145 0
-124 -150 0
-124 -151 0
124 151 150 0
125 212 0
125 -126 0
-125 126 -212 0
125 0
-126 -184 0
-126 127 0
126 -127 184 0
-127 -185 0
-127 128 0
127 -128 185 0
-128 -186 0
-128 129 0
128 -129 186 0
-129 -195 0
-129 130 0
129 -130 195 0
-130 -196 0
-130 -197 0
130 197 196 0
131 207 0
131 -132 0
-131 132 -207 0
131 0
-132 133 0
-132 136 0
132 -136 -133 0
133 -134 0
133 -135 0
-133 135 134 0
-134 -153 0
-134 152 0
134 -152 153 0
-135 -152 0
-135 153 0
135 -153 152 0
136 -137 0
136 -138 0
-136 138 137 0
-137 -155 0
-137 154 0
137 -154 155 0
-138 -154 0
-138 155 0
138 -155 154 0
139 208 0
139 -140 0
-139 140 -208 0
139 0
-140 141 0
-140 146 0
140 -146 -141 0
141 -142 0
141 -143 0
-141 143 142 0
-142 -145 0
-142 144 0
142 -144 145 0
-143 -144 0
-143 145 0
143 -145 144 0
-146 132 0
-146 147 0
146 -147 -132 0
147 -148 0
147 -149 0
-147 149 148 0
-148 -151 0
-148 150 0
148 -150 151 0
-149 -150 0
-149 151 0
149 -151 150 0
156 212 0
156 -157 0
-156 157 -212 0
156 0
-157 158 0
-157 166 0
157 -166 -158 0
158 -159 0
158 -164 0
-158 164 159 0
159 -160 0
159 -162 0
-159 162 160 0
-160 161 0
-160 198 0
160 -198 -161 0
-161 -199 0
-161 -200 0
161 200 199 0
-162 163 0
-162 199 0
162 -199 -163 0
-163 -198 0
-163 -200 0
163 200 198 0
-164 165 0
-164 200 0
164 -200 -165 0
-165 -198 0
-165 -199 0
165 199 198 0
166 -167 0
166 -172 0
-166 172 167 0
167 -168 0
167 -170 0
-167 170 168 0
-168 169 0
-168 201 0
168 -201 -169 0
-169 -202 0
-169 -203 0
169 203 202 0
-170 171 0
-170 202 0
170 -202 -171 0
-171 -201 0
-171 -203 0
171 203 201 0
-172 173 0
-172 203 0
172 -203 -173 0
-173 -201 0
-173 -202 0
173 202 201 0
174 213 0
174 -175 0
-174 175 -213 0
174 0
-175 176 0
-175 187 0
175 -187 -176 0
176 -177 0
176 -182 0
-176 182 177 0
177 -178 0
177 -180 0
-177 180 178 0
-178 179 0
-178 184 0
178 -184 -179 0
-179 -185 0
-179 -186 0
179 186 185 0
-180 181 0
-180 185 0
180 -185 -181 0
-181 -184 0
-181 -186 0
181 186 184 0
-182 183 0
-182 186 0
182 -186 -183 0
-183 -184 0
-183 -185 0
183 185 184 0
-187 157 0
-187 188 0
187 -188 -157 0
188 -189 0
188 -193 0
-188 193 189 0
189 -190 0
189 -191 0
-189 191 190 0
-190 130 0
-190 195 0
190 -195 -130 0
-191 192 0
-191 196 0
191 -196 -192 0
-192 -195 0
-192 -197 0
192 197 195 0
-193 194 0
-193 197 0
193 -197 -194 0
-194 -195 0
-194 -196 0
194 196 195 0
204 -205 0
204 -206 0
-204 206 205 0
204 0
-205 -208 0
-205 207 0
205 -207 208 0
-206 -207 0
-206 208 0
206 -208 207 0
209 -210 0
209 -211 0
-209 211 210 0
209 0
-210 -213 0
-210 212 0
210 -212 213 0
-211 -212 0
-211 213 0
211 -213 212 0
214 634 0
214 594 0
-214 -594 -634 0
214 0
215 564 0
215 560 0
-215 -560 -564 0
215 0
216 567 0
216 -217 0
-216 217 -567 0
216 0
-217 -564 0
-217 -560 0
217 560 564 0
218 571 0
218 -219 0
-218 219 -571 0
218 0
-219 -560 0
-219 220 0
219 -220 560 0
-220 -564 0
-220 -567 0
220 567 564 0
221 575 0
221 -222 0
-221 222 -575 0
221 0
-222 -560 0
-222 223 0
222 -223 560 0
-223 -564 0
-223 224 0
223 -224 564 0
-224 -567 0
-224 -571 0
224 571 567 0
225 579 0
225 -226 0
-225 226 -579 0
225 0
-226 -560 0
-226 227 0
226 -227 560 0
-227 -564 0
-227 228 0
227 -228 564 0
-228 -567 0
-228 229 0
228 -229 567 0
-229 -571 0
-229 -575 0
229 575 571 0
230 582 0
230 -231 0
-230 231 -582 0
230 0
-231 -560 0
-231 232 0
231 -232 560 0
-232 -564 0
-232 233 0
232 -233 564 0
-233 -567 0
-233 234 0
233 -234 567 0
-234 -571 0
-234 235 0
234 -235 571 0
-235 -575 0
-235 -579 0
235 579 575 0
236 586 0
236 -237 0
-236 237 -586 0
236 0
-237 -560 0
-237 238 0
237 -238 560 0
-238 -564 0
-238 239 0
238 -239 564 0
-239 -567 0
-239 240 0
239 -240 567 0
-240 -571 0
-240 241 0
240 -241 571 0
-241 -575 0
-241 242 0
241 -242 575 0
-242 -579 0
-242 -582 0
242 582 579 0
243 590 0
243 -244 0
-243 244 -590 0
243 0
-244 -560 0
-244 245 0
244 -245 560 0
-245 -564 0
-245 246 0
245 -246 564 0
-246 -567 0
-246 247 0
246 -247 567 0
-247 -571 0
-247 248 0
247 -248 571 0
-248 -575 0
-248 249 0
248 -249 575 0
-249 -579 0
-249 250 0
249 -250 579 0
-250 -582 0
-250 -586 0
250 586 582 0
251 595 0
251 -252 0
-251 252 -595 0
251 0
-252 -560 0
-252 253 0
252 -253 560 0
-253 -564 0
-253 254 0
253 -254 564 0
-254 -567 0
-254 255 0
254 -255 567 0
-255 -571 0
-255 256 0
255 -256 571 0
-256 -575 0
-256 257 0
256 -257 575 0
-257 -579 0
-257 258 0
257 -258 579 0
-258 -582 0
-258 259 0
258 -259 582 0
-259 -586 0
-259 -590 0
259 590 586 0
260 599 0
260 -261 0
-260 261 -599 0
260 0
-261 -560 0
-261 262 0
261 -262 560 0
-262 -564 0
-262 263 0
262 -263 564 0
-263 -567 0
-263 264 0
263 -264 567 0
-264 -571 0
-264 265 0
264 -265 571 0
-265 -575 0
-265 266 0
265 -266 575 0
-266 -579 0
-266 267 0
266 -267 579 0
-267 -582 0
-267 268 0
267 -268 582 0
-268 -586 0
-268 269 0
268 -269 586 0
-269 -590 0
-269 -595 0
269 595 590 0
270 603 0
270 -271 0
-270 271 -603 0
270 0
-271 -560 0
-271 272 0
271 -272 560 0
-272 -564 0
-272 273 0
272 -273 564 0
-273 -567 0
-273 274 0
273 -274 567 0
-274 -571 0
-274 275 0
274 -275 571 0
-275 -575 0
-275 276 0
275 -276 575 0
-276 -579 0
-276 277 0
276 -277 579 0
-277 -582 0
-277 278 0
277 -278 582 0
-278 -586 0
-278 279 0
278 -279 586 0
-279 -590 0
-279 280 0
279 -280 590 0
-280 -595 0
-280 -599 0
280 599 595 0
281 607 0
281 -282 0
-281 282 -607 0
281 0
-282 -560 0
-282 283 0
282 -283 560 0
-283 -564 0
-283 284 0
283 -284 564 0
-284 -567 0
-284 285 0
284 -285 567 0
-285 -571 0
-285 286 0
285 -286 571 0
-286 -575 0
-286 287 0
286 -287 575 0
-287 -579 0
-287 288 0
287 -288 579 0
-288 -582 0
-288 289 0
288 -289 582 0
-289 -586 0
-289 290 0
289 -290 586 0
-290 -590 0
-290 291 0
290 -291 590 0
-291 -595 0
-291 292 0
291 -292 595 0
-292 -599 0
-292 -603 0
292 603 599 0
293 611 0
293 -294 0
-293 294 -611 0
293 0
-294 -560 0
-294 295 0
294 -295 560 0
-295 -564 0
-295 296 0
295 -296 564 0
-296 -567 0
-296 297 0
296 -297 567 0
-297 -571 0
-297 298 0
297 -298 571 0
-298 -575 0
-298 299 0
298 -299 575 0
-299 -579 0
-299 300 0
299 -300 579 0
-300 -582 0
-300 301 0
300 -301 582 0
-301 -586 0
-301 302 0
301 -302 586 0
-302 -590 0
-302 303 0
302 -303 590 0
-303 -595 0
-303 304 0
303 -304 595 0
-304 -599 0
-304 305 0
304 -305 599 0
-305 -603 0
-305 -607 0
305 607 603 0
306 615 0
306 -307 0
-306 307 -615 0
306 0
-307 -560 0
-307 308 0
307 -308 560 0
-308 -564 0
-308 309 0
308 -309 564 0
-309 -567 0
-309 310 0
309 -310 567 0
-310 -571 0
-310 311 0
310 -311 571 0
-311 -575 0
-311 312 0
311 -312 575 0
-312 -579 0
-312 313 0
312 -313 579 0
-313 -582 0
-313 314 0
313 -314 582 0
-314 -586 0
-314 315 0
314 -315 586 0
-315 -590 0
-315 316 0
315 -316 590 0
-316 -595 0
-316 317 0
316 -317 595 0
-317 -599 0
-317 318 0
317 -318 599 0
-318 -603 0
-318 319 0
318 -319 603 0
-319 -607 0
-319 -611 0
319 611 607 0
320 619 0
320 -321 0
-320 321 -619 0
320 0
-321 -560 0
-321 322 0
321 -322 560 0
-322 -564 0
-322 323 0
322 -323 564 0
-323 -567 0
-323 324 0
323 -324 567 0
-324 -571 0
-324 325 0
324 -325 571 0
-325 -575 0
-325 326 0
325 -326 575 0
-326 -579 0
-326 327 0
326 -327 579 0
-327 -582 0
-327 328 0
327 -328 582 0
-328 -586 0
-328 329 0
328 -329 586 0
-329 -590 0
-329 330 0
329 -330 590 0
-330 -595 0
-330 331 0
330 -331 595 0
-331 -599 0
-331 332 0
331 -332 599 0
-332 -603 0
-332 333 0
332 -333 603 0
-333 -607 0
-333 334 0
333 -334 607 0
-334 -611 0
-334 -615 0
334 615 611 0
335 623 0
335 -336 0
-335 336 -623 0
335 0
-336 -560 0
-336 337 0
336 -337 560 0
-337 -564 0
-337 338 0
337 -338 564 0
-338 -567 0
-338 339 0
338 -339 567 0
-339 -571 0
-339 340 0
339 -340 571 0
-340 -575 0
-340 341 0
340 -341 575 0
-341 -579 0
-341 342 0
341 -342 579 0
-342 -582 0
-342 343 0
342 -343 582 0
-343 -586 0
-343 344 0
343 -344 586 0
-344 -590 0
-344 345 0
344 -345 590 0
-345 -595 0
-345 346 0
345 -346 595 0
-346 -599 0
-346 347 0
346 -347 599 0
-347 -603 0
-347 348 0
347 -348 603 0
-348 -607 0
-348 349 0
348 -349 607 0
-349 -611 0
-349 350 0
349 -350 611 0
-350 -615 0
-350 -619 0
350 619 615 0
351 627 0
351 -352 0
-351 352 -627 0
351 0
-352 -560 0
-352 353 0
352 -353 560 0
-353 -564 0
-353 354 0
353 -354 564 0
-354 -567 0
-354 355 0
354 -355 567 0
-355 -571 0
-355 356 0
355 -356 571 0
-356 -575 0
-356 357 0
356 -357 575 0
-357 -579 0
-357 358 0
357 -358 579 0
-358 -582 0
-358 359 0
358 -359 582 0
-359 -586 0
-359 360 0
359 -360 586 0
-360 -590 0
-360 361 0
360 -361 590 0
-361 -595 0
-361 362 0
361 -362 595 0
-362 -599 0
-362 363 0
362 -363 599 0
-363 -603 0
-363 364 0
363 -364 603 0
-364 -607 0
-364 365 0
364 -365 607 0
-365 -611 0
-365 366 0
365 -366 611 0
-366 -615 0
-366 367 0
366 -367 615 0
-367 -619 0
-367 -623 0
367 623 619 0
368 631 0
368 -369 0
-368 369 -631 0
368 0
-369 -560 0
-369 370 0
369 -370 560 0
-370 -564 0
-370 371 0
370 -371 564 0
-371 -567 0
-371 372 0
371 -372 567 0
-372 -571 0
-372 373 0
372 -373 571 0
-373 -575 0
-373 374 0
373 -374 575 0
-374 -579 0
-374 375 0
374 -375 579 0
-375 -582 0
-375 376 0
375 -376 582 0
-376 -586 0
-376 377 0
376 -377 586 0
-377 -590 0
-377 378 0
377 -378 590 0
-378 -595 0
-378 379 0
378 -379 595 0
-379 -599 0
-379 380 0
379 -380 599 0
-380 -603 0
-380 381 0
380 -381 603 0
-381 -607 0
-381 382 0
381 -382 607 0
-382 -611 0
-382 383 0
382 -383 611 0
-383 -615 0
-383 384 0
383 -384 615 0
-384 -619 0
-384 385 0
384 -385 619 0
-385 -623 0
-385 -627 0
385 627 623 0
386 635 0
386 -387 0
-386 387 -635 0
386 0
-387 -560 0
-387 388 0
387 -388 560 0
-388 -564 0
-388 389 0
388 -389 564 0
-389 -567 0
-389 390 0
389 -390 567 0
-390 -571 0
-390 391 0
390 -391 571 0
-391 -575 0
-391 392 0
391 -392 575 0
-392 -579 0
-392 393 0
392 -393 579 0
-393 -582 0
-393 394 0
393 -394 582 0
-394 -586 0
-394 395 0
394 -395 586 0
-395 -590 0
-395 396 0
395 -396 590 0
-396 -595 0
-396 397 0
396 -397 595 0
-397 -599 0
-397 398 0
397 -398 599 0
-398 -603 0
-398 399 0
398 -399 603 0
-399 -607 0
-399 400 0
399 -400 607 0
-400 -611 0
-400 401 0
400 -401 611 0
-401 -615 0
-401 402 0
401 -402 615 0
-402 -619 0
-402 403 0
402 -403 619 0
-403 -623 0
-403 404 0
403 -404 623 0
-404 -627 0
-404 -631 0
404 631 627 0
405 568 0
405 561 0
-405 -561 -568 0
405 0
406 572 0
406 -407 0
-406 407 -572 0
406 0
-407 -568 0
-407 -561 0
407 561 568 0
408 576 0
408 -409 0
-408 409 -576 0
408 0
-409 -561 0
-409 410 0
409 -410 561 0
-410 -568 0
-410 -572 0
410 572 568 0
411 583 0
411 -412 0
-411 412 -583 0
411 0
-412 -561 0
-412 413 0
412 -413 561 0
-413 -568 0
-413 414 0
413 -414 568 0
-414 -572 0
-414 -576 0
414 576 572 0
415 587 0
415 -416 0
-415 416 -587 0
415 0
-416 -561 0
-416 417 0
416 -417 561 0
-417 -568 0
-417 418 0
417 -418 568 0
-418 -572 0
-418 419 0
418 -419 572 0
-419 -576 0
-419 -583 0
419 583 576 0
420 591 0
420 -421 0
-420 421 -591 0
420 0
-421 -561 0
-421 422 0
421 -422 561 0
-422 -568 0
-422 423 0
422 -423 568 0
-423 -572 0
-423 424 0
423 -424 572 0
-424 -576 0
-424 425 0
424 -425 576 0
-425 -583 0
-425 -587 0
425 587 583 0
426 596 0
426 -427 0
-426 427 -596 0
426 0
-427 -561 0
-427 428 0
427 -428 561 0
-428 -568 0
-428 429 0
428 -429 568 0
-429 -572 0
-429 430 0
429 -430 572 0
-430 -576 0
-430 431 0
430 -431 576 0
-431 -583 0
-431 432 0
431 -432 583 0
-432 -587 0
-432 -591 0
432 591 587 0
433 600 0
433 -434 0
-433 434 -600 0
433 0
-434 -561 0
-434 435 0
434 -435 561 0
-435 -568 0
-435 436 0
435 -436 568 0
-436 -572 0
-436 437 0
436 -437 572 0
-437 -576 0
-437 438 0
437 -438 576 0
-438 -583 0
-438 439 0
438 -439 583 0
-439 -587 0
-439 440 0
439 -440 587 0
-440 -591 0
-440 -596 0
440 596 591 0
441 604 0
441 -442 0
-441 442 -604 0
441 0
-442 -561 0
-442 443 0
442 -443 561 0
-443 -568 0
-443 444 0
443 -444 568 0
-444 -572 0
-444 445 0
444 -445 572 0
-445 -576 0
-445 446 0
445 -446 576 0
-446 -583 0
-446 447 0
446 -447 583 0
-447 -587 0
-447 448 0
447 -448 587 0
-448 -591 0
-448 449 0
448 -449 591 0
-449 -596 0
-449 -600 0
449 600 596 0
450 608 0
450 -451 0
-450 451 -608 0
450 0
-451 -561 0
-451 452 0
451 -452 561 0
-452 -568 0
-452 453 0
452 -453 568 0
-453 -572 0
-453 454 0
453 -454 572 0
-454 -576 0
-454 455 0
454 -455 576 0
-455 -583 0
-455 456 0
455 -456 583 0
-456 -587 0
-456 457 0
456 -457 587 0
-457 -591 0
-457 458 0
457 -458 591 0
-458 -596 0
-458 459 0
458 -459 596 0
-459 -600 0
-459 -604 0
459 604 600 0
460 612 0
460 -461 0
-460 461 -612 0
460 0
-461 -561 0
-461 462 0
461 -462 561 0
-462 -568 0
-462 463 0
462 -463 568 0
-463 -572 0
-463 464 0
463 -464 572 0
-464 -576 0
-464 465 0
464 -465 576 0
-465 -583 0
-465 466 0
465 -466 583 0
-466 -587 0
-466 467 0
466 -467 587 0
-467 -591 0
-467 468 0
467 -468 591 0
-468 -596 0
-468 469 0
468 -469 596 0
-469 -600 0
-469 470 0
469 -470 600 0
-470 -604 0
-470 -608 0
470 608 604 0
471 616 0
471 -472 0
-471 472 -616 0
471 0
-472 -561 0
-472 473 0
472 -473 561 0
-473 -568 0
-473 474 0
473 -474 568 0
-474 -572 0
-474 475 0
474 -475 572 0
-475 -576 0
-475 476 0
475 -476 576 0
-476 -583 0
-476 477 0
476 -477 583 0
-477 -587 0
-477 478 0
477 -478 587 0
-478 -591 0
-478 479 0
478 -479 591 0
-479 -596 0
-479 480 0
479 -480 596 0
-480 -600 0
-480 481 0
480 -481 600 0
-481 -604 0
-481 482 0
481 -482 604 0
-482 -608 0
-482 -612 0
482 612 608 0
483 620 0
483 -484 0
-483 484 -620 0
483 0
-484 -561 0
-484 485 0
484 -485 561 0
-485 -568 0
-485 486 0
485 -486 568 0
-486 -572 0
-486 487 0
486 -487 572 0
-487 -576 0
-487 488 0
487 -488 576 0
-488 -583 0
-488 489 0
488 -489 583 0
-489 -587 0
-489 490 0
489 -490 587 0
-490 -591 0
-490 491 0
490 -491 591 0
-491 -596 0
-491 492 0
491 -492 596 0
-492 -600 0
-492 493 0
492 -493 600 0
-493 -604 0
-493 494 0
493 -494 604 0
-494 -608 0
-494 495 0
494 -495 608 0
-495 -612 0
-495 -616 0
495 616 612 0
496 624 0
496 -497 0
-496 497 -624 0
496 0
-497 -561 0
-497 498 0
497 -498 561 0
-498 -568 0
-498 499 0
498 -499 568 0
-499 -572 0
-499 500 0
499 -500 572 0
-500 -576 0
-500 501 0
500 -501 576 0
-501 -583 0
-501 502 0
501 -502 583 0
-502 -587 0
-502 503 0
502 -503 587 0
-503 -591 0
-503 504 0
503 -504 591 0
-504 -596 0
-504 505 0
504 -505 596 0
-505 -600 0
-505 506 0
505 -506 600 0
-506 -604 0
-506 507 0
506 -507 604 0
-507 -608 0
-507 508 0
507 -508 608 0
-508 -612 0
-508 509 0
508 -509 612 0
-509 -616 0
-509 -620 0
509 620 616 0
510 628 0
510 -511 0
-510 511 -628 0
510 0
-511 -561 0
-511 512 0
511 -512 561 0
-512 -568 0
-512 513 0
512 -513 568 0
-513 -572 0
-513 514 0
513 -514 572 0
-514 -576 0
-514 515 0
514 -515 576 0
-515 -583 0
-515 516 0
515 -516 583 0
-516 -587 0
-516 517 0
516 -517 587 0
-517 -591 0
-517 518 0
517 -518 591 0
-518 -596 0
-518 519 0
518 -519 596 0
-519 -600 0
-519 520 0
519 -520 600 0
-520 -604 0
-520 521 0
520 -521 604 0
-521 -608 0
-521 522 0
521 -522 608 0
-522 -612 0
-522 523 0
522 -523 612 0
-523 -616 0
-523 524 0
523 -524 616 0
-524 -620 0
-524 -624 0
524 624 620 0
525 632 0
525 -526 0
-525 526 -632 0
525 0
-526 -561 0
-526 527 0
526 -527 561 0
-527 -568 0
-527 528 0
527 -528 568 0
-528 -572 0
-528 529 0
528 -529 572 0
-529 -576 0
-529 530 0
529 -530 576 0
-530 -583 0
-530 531 0
530 -531 583 0
-531 -587 0
-531 532 0
531 -532 587 0
-532 -591 0
-532 533 0
532 -533 591 0
-533 -596 0
-533 534 0
533 -534 596 0
-534 -600 0
-534 535 0
534 -535 600 0
-535 -604 0
-535 536 0
535 -536 604 0
-536 -608 0
-536 537 0
536 -537 608 0
-537 -612 0
-537 538 0
537 -538 612 0
-538 -616 0
-538 539 0
538 -539 616 0
-539 -620 0
-539 540 0
539 -540 620 0
-540 -624 0
-540 -628 0
540 628 624 0
541 636 0
541 -542 0
-541 542 -636 0
541 0
-542 -561 0
-542 543 0
542 -543 561 0
-543 -568 0
-543 544 0
543 -544 568 0
-544 -572 0
-544 545 0
544 -545 572 0
-545 -576 0
-545 546 0
545 -546 576 0
-546 -583 0
-546 547 0
546 -547 583 0
-547 -587 0
-547 548 0
547 -548 587 0
-548 -591 0
-548 549 0
548 -549 591 0
-549 -596 0
-549 550 0
549 -550 596 0
-550 -600 0
-550 551 0
550 -551 600 0
-551 -604 0
-551 552 0
551 -552 604 0
-552 -608 0
-552 553 0
552 -553 608 0
-553 -612 0
-553 554 0
553 -554 612 0
-554 -616 0
-554 555 0
554 -555 616 0
-555 -620 0
-555 556 0
555 -556 620 0
-556 -624 0
-556 557 0
556 -557 624 0
-557 -628 0
-557 -632 0
557 632 628 0
558 -559 0
558 -562 0
-558 562 559 0
558 0
-559 53 0
-559 634 0
559 -634 -53 0
562 -563 0
562 -565 0
-562 565 563 0
-563 32 0
-563 634 0
563 -634 -32 0
565 -566 0
565 -569 0
-565 569 566 0
-566 34 0
-566 634 0
566 -634 -34 0
569 -570 0
569 -573 0
-569 573 570 0
-570 55 0
-570 634 0
570 -634 -55 0
573 -574 0
573 -577 0
-573 577 574 0
-574 36 0
-574 634 0
574 -634 -36 0
577 -578 0
577 -580 0
-577 580 578 0
-578 80 0
-578 594 0
578 -594 -80 0
580 -581 0
580 -584 0
-580 584 581 0
-581 64 0
-581 634 0
581 -634 -64 0
584 -585 0
584 -588 0
-584 588 585 0
-585 38 0
-585 634 0
585 -634 -38 0
588 -589 0
588 -592 0
-588 592 589 0
-589 66 0
-589 594 0
589 -594 -66 0
592 -593 0
592 -597 0
-592 597 593 0
-593 82 0
-593 594 0
593 -594 -82 0
597 -598 0
597 -601 0
-597 601 598 0
-598 40 0
-598 634 0
598 -634 -40 0
601 -602 0
601 -605 0
-601 605 602 0
-602 83 0
-602 634 0
602 -634 -83 0
605 -606 0
605 -609 0
-605 609 606 0
-606 56 0
-606 634 0
606 -634 -56 0
609 -610 0
609 -613 0
-609 613 610 0
-610 68 0
-610 634 0
610 -634 -68 0
613 -614 0
613 -617 0
-613 617 614 0
-614 70 0
-614 634 0
614 -634 -70 0
617 -618 0
617 -621 0
-617 621 618 0
-618 72 0
-618 634 0
618 -634 -72 0
621 -622 0
621 -625 0
-621 625 622 0
-622 73 0
-622 634 0
622 -634 -73 0
625 -626 0
625 -629 0
-625 629 626 0
-626 42 0
-626 634 0
626 -634 -42 0
629 -630 0
629 -633 0
-629 633 630 0
-630 44 0
-630 634 0
630 -634 -44 0
-633 45 0
-633 634 0
633 -634 -45 0
